(set-option :print-success true)
(set-option :produce-models true)
(set-option :produce-proofs true)
(set-option :smt.pull-nested-quantifiers true)
(set-option :smt.mbqi true)
(set-option :auto_config false)
(set-option :smt.macro_finder true)
(declare-sort @@Type 0)
(declare-fun @isType ( @@Type) Bool)
(assert (forall ((@x @@Type))
 (!(= true (@isType @x))  :pattern ( (@isType @x)))
)
)
(define-sort @U_uniq.3101 () @@Type)
(define-sort Prop () Bool)
(declare-fun @isProp ( Prop) Bool)
(assert (forall ((@x Prop))
 (!(= true (@isProp @x))  :pattern ( (@isProp @x)))
)
)
(declare-sort @@ArrowT2 2)
(declare-fun @isFun_uniq.3107 ( (@@ArrowT2  @U_uniq.3101 Bool)) Bool)
(declare-fun @apply_uniq.3107 ( (@@ArrowT2  @U_uniq.3101 Bool) @U_uniq.3101) Bool)
(assert (forall ((@f (@@ArrowT2  @U_uniq.3101 Bool)))
 (!(= (forall ((@x0 @U_uniq.3101))
 (@isProp (@apply_uniq.3107 @f @x0)))
 (@isFun_uniq.3107 @f))  :pattern ( (@isFun_uniq.3107 @f)) :qid @isFun_uniq.3107_cstr)
)
)
(assert (forall ((@x0 @U_uniq.3101)(@f (@@ArrowT2  @U_uniq.3101 Bool))(@g (@@ArrowT2  @U_uniq.3101 Bool)))
 (!(=> (= @f @g) (= (@apply_uniq.3107 @f @x0) (@apply_uniq.3107 @g @x0)))  :pattern ( (= @f @g) (@apply_uniq.3107 @f @x0) (@apply_uniq.3107 @g @x0)) :qid @apply_uniq.3107_congr_fun)
)
)
(assert (forall ((@x0 @U_uniq.3101)(@f (@@ArrowT2  @U_uniq.3101 Bool))(@g (@@ArrowT2  @U_uniq.3101 Bool)))
 (!(=> (= (@apply_uniq.3107 @f @x0) (@apply_uniq.3107 @g @x0)) (= @f @g))  :pattern ( (= (@apply_uniq.3107 @f @x0) (@apply_uniq.3107 @g @x0))) :qid @apply_uniq.3107_ext_fun)
)
)
(assert (forall ((@f (@@ArrowT2  @U_uniq.3101 Bool))(@x0 @U_uniq.3101)(@y0 @U_uniq.3101))
 (!(=> (= @x0 @y0) (= (@apply_uniq.3107 @f @x0) (@apply_uniq.3107 @f @y0)))  :pattern ( (@apply_uniq.3107 @f @x0) (@apply_uniq.3107 @f @y0) (= @x0 @y0)) :qid @apply_uniq.3107_congr_args)
)
)
(declare-const $1 (@@ArrowT2  @U_uniq.3101 Bool))
(declare-fun @isFun_uniq.3122 ( (@@ArrowT2  (@@ArrowT2  @U_uniq.3101 Bool) Bool)) Bool)
(declare-fun @apply_uniq.3122 ( (@@ArrowT2  (@@ArrowT2  @U_uniq.3101 Bool) Bool) (@@ArrowT2  @U_uniq.3101 Bool)) Bool)
(assert (forall ((@f (@@ArrowT2  (@@ArrowT2  @U_uniq.3101 Bool) Bool)))
 (!(= (forall ((@x0 (@@ArrowT2  @U_uniq.3101 Bool)))
 (@isProp (@apply_uniq.3122 @f @x0)))
 (@isFun_uniq.3122 @f))  :pattern ( (@isFun_uniq.3122 @f)) :qid @isFun_uniq.3122_cstr)
)
)
(assert (forall ((@x0 (@@ArrowT2  @U_uniq.3101 Bool))(@f (@@ArrowT2  (@@ArrowT2  @U_uniq.3101 Bool) Bool))(@g (@@ArrowT2  (@@ArrowT2  @U_uniq.3101 Bool) Bool)))
 (!(=> (= @f @g) (= (@apply_uniq.3122 @f @x0) (@apply_uniq.3122 @g @x0)))  :pattern ( (= @f @g) (@apply_uniq.3122 @f @x0) (@apply_uniq.3122 @g @x0)) :qid @apply_uniq.3122_congr_fun)
)
)
(assert (forall ((@x0 (@@ArrowT2  @U_uniq.3101 Bool))(@f (@@ArrowT2  (@@ArrowT2  @U_uniq.3101 Bool) Bool))(@g (@@ArrowT2  (@@ArrowT2  @U_uniq.3101 Bool) Bool)))
 (!(=> (= (@apply_uniq.3122 @f @x0) (@apply_uniq.3122 @g @x0)) (= @f @g))  :pattern ( (= (@apply_uniq.3122 @f @x0) (@apply_uniq.3122 @g @x0))) :qid @apply_uniq.3122_ext_fun)
)
)
(assert (forall ((@f (@@ArrowT2  (@@ArrowT2  @U_uniq.3101 Bool) Bool))(@x0 (@@ArrowT2  @U_uniq.3101 Bool))(@y0 (@@ArrowT2  @U_uniq.3101 Bool)))
 (!(=> (= @x0 @y0) (= (@apply_uniq.3122 @f @x0) (@apply_uniq.3122 @f @y0)))  :pattern ( (@apply_uniq.3122 @f @x0) (@apply_uniq.3122 @f @y0) (= @x0 @y0)) :qid @apply_uniq.3122_congr_args)
)
)
(declare-const @global_lambda_uniq.3128 (@@ArrowT2  (@@ArrowT2  (@@ArrowT2  @@Type Bool) Bool) (@@ArrowT2  @@Type Bool)))
(declare-fun @global_apply_uniq.3128 ( (@@ArrowT2  (@@ArrowT2  (@@ArrowT2  @@Type Bool) Bool) (@@ArrowT2  @@Type Bool)) (@@ArrowT2  (@@ArrowT2  @@Type Bool) Bool)) (@@ArrowT2  @@Type Bool))
(assert (forall (($2 (@@ArrowT2  (@@ArrowT2  @@Type Bool) Bool))($3 @@Type))
 (!(= (@apply_uniq.3107 (@global_apply_uniq.3128 @global_lambda_uniq.3128 $2) $3) (exists (($4 (@@ArrowT2  @U_uniq.3101 Bool)))
 (and (@isFun_uniq.3107 $4) (and (@apply_uniq.3122 $2 $4) (@apply_uniq.3107 $4 $3))))
)  :pattern ( (@apply_uniq.3107 (@global_apply_uniq.3128 @global_lambda_uniq.3128 $2) $3)) :qid @global_lambda_uniq.3128_def_cstr)
)
)
(declare-const @global_lambda_uniq.3154 (@@ArrowT2  @@Type (@@ArrowT2  @@Type Bool)))
(declare-fun @global_apply_uniq.3154 ( (@@ArrowT2  @@Type (@@ArrowT2  @@Type Bool)) @@Type) (@@ArrowT2  @@Type Bool))
(assert (forall (($5 @@Type)($6 @@Type))
 (!(= (@apply_uniq.3107 (@global_apply_uniq.3154 @global_lambda_uniq.3154 $5) $6) (= $5 $6))  :pattern ( (@apply_uniq.3107 (@global_apply_uniq.3154 @global_lambda_uniq.3154 $5) $6)) :qid @global_lambda_uniq.3154_def_cstr)
)
)
(assert (not (=> (@isFun_uniq.3107 $1) (=> (forall (($2 (@@ArrowT2  (@@ArrowT2  @U_uniq.3101 Bool) Bool)))
 (!(=> (@isFun_uniq.3122 $2) (=> (= $1 (@global_apply_uniq.3128 @global_lambda_uniq.3128 $2)) (@apply_uniq.3122 $2 $1)))  :pattern ( (@isFun_uniq.3122 $2) (= $1 (@global_apply_uniq.3128 @global_lambda_uniq.3128 $2)) (@apply_uniq.3122 $2 $1)))
)
 (exists (($5 @U_uniq.3101))
 (and (@isType $5) (= $1 (@global_apply_uniq.3154 @global_lambda_uniq.3154 $5))))
))))
(check-sat)
(get-model)
(get-value (
  (forall ((x @U_uniq.3101)) (not (@apply_uniq.3107 $1 x)))
))